c --- [ banner ] -------------------------------------------------------------
c 
c CaDiCaL Radically Simplified CDCL SAT Solver
c Copyright (c) 2016-2021 A. Biere, M. Fleury, N. Froleyks
c 
c Version 1.5.2 9c38a080b32c28d805e8e6ca21849856b0cda605
c g++ (Ubuntu 7.5.0-3ubuntu1~18.04) 7.5.0 -Wall -Wextra -O3 -DNDEBUG
c Wed Feb 16 23:15:36 EST 2022 Linux fac-vanhoeve01 5.4.0-99-generic x86_64
c 
c --- [ limit ] --------------------------------------------------------------
c 
c setting time limit to 600 seconds real time (due to '-t 600')
c setting conflict limit to 1000000000 conflicts (due to '1000000000')
c 
c --- [ parsing input ] ------------------------------------------------------
c 
c reading DIMACS file from 'ddfwcnfs/wap06a.col_40.cnf'
c opening file to read 'ddfwcnfs/wap06a.col_40.cnf'
c found 'p cnf 37880 1554267' header
c parsed 1554267 clauses in 1.07 seconds process time
c closing file 'ddfwcnfs/wap06a.col_40.cnf'
c after reading 24566760 bytes 23.4 MB
c 
c --- [ options ] ------------------------------------------------------------
c 
c all options are set to their default value
c 
c --- [ solving ] ------------------------------------------------------------
c 
c time measured in process time since initialization
c 
c  seconds   reductions  redundant   irredundant
c          MB    restarts       trail        variables
c           level   conflicts       glue          remaining
c 
c *  1.07 139  0 0   0    0    0  0% 0 1552667 36280 96%
c {  1.09 140  0 0   0    0    0  0% 0 1552667 36280 96%
c -  1.49 140 37 1   0  302  208  9% 21 1552667 36280 96%
c }  1.58 140 35 1  21 1002  677  8% 22 1552667 36280 96%
c [  1.58 140  0 1  21 1002  677  0% 0 1552667 36280 96%
c O  1.59 140 37 1  21 1003  678  9% 37 1552667 36280 96%
c -  2.62 187 40 2  21 1616  983  9% 38 1552667 36280 96%
c ]  2.75 187 42 2  22 3002 1896 10% 39 1552667 36280 96%
c {  2.75 187 35 2  22 3002 1896  8% 22 1552667 36280 96%
c F  2.76 187 35 2  22 3004 1898  8% 22 1552667 36280 96%
c -  3.54 188 32 3  25 3588 1534 10% 22 1552667 36280 96%
c #  5.44 186 27 3  36 6005 2759 12% 22 1552667 36280 96%
c -  6.17 186 27 4  37 6218 1786 12% 22 1552667 36280 96%
c }  6.24 186 27 4  37 7005 2239 13% 22 1552667 36280 96%
c [  6.24 186 42 4  37 7005 2239 10% 39 1552667 36280 96%
c -  7.21 186 37 5  39 9505 2673 12% 32 1552667 36280 96%
c I  7.27 186 36 5  39 10007 3030 12% 32 1552667 36280 96%
c s  8.03 190 593 5  40 10839 3480 18% 34 1552667 36280 96%
c e 11.98 191 593 5  40 10839 1541 18% 34 1199313 31498 83%
c s 12.71 202 593 5  40 10839 1519 18% 34 1199313 31498 83%
c 
c  seconds    reductions   redundant    irredundant
c          MB     restarts        trail         variables
c            level    conflicts       glue           remaining
c 
c ^ 13.06 202 593 5  40 10839 1519 18% 34 1199313 31498 83%
c - 15.25 185 497 6  42 13450 2876 28% 44 1199313 31498 83%
c ] 15.56 185 442 6  42 15006 4062 26% 48 1199313 31498 83%
c { 15.56 185 27 6  42 15006 4062 15% 22 1199313 31498 83%
c B 17.25 185 29 6  42 15010 4066 15% 22 1199313 31498 83%
c - 17.97 184 41 7 742 17815 2889 11% 26 1199313 31498 83%
c W 18.71 184 50 7 746 21013 4756 11% 25 1199313 31498 83%
c - 19.47 184 52 8 1204 22804 3223 10% 26 1199313 31498 83%
c F 19.85 184 44 8 1304 28014 6398 10% 25 1199313 31498 83%
c - 20.44 184 44 9 1304 28417 4386 10% 25 1199313 31498 83%
c } 22.36 184 42 9 1305 31006 6388  9% 25 1199313 31498 83%
c [ 22.36 184 442 9 1305 31006 6388 26% 48 1199313 31498 83%
c s 22.55 184 414 9 1305 31845 6418 26% 47 1199313 31498 83%
c s 25.34 184 414 9 1305 31845 6241 26% 47 1199313 31498 83%
c ^ 25.62 184 414 9 1305 31845 6241 26% 47 1199313 31498 83%
c - 26.53 185 336 10 1307 34653 5625 22% 48 1199313 31498 83%
c B 26.70 185 309 10 1308 36016 6330 21% 48 1199313 31498 83%
c - 28.31 186 875 11 1311 41514 7017 28% 58 1199313 31498 83%
c W 29.59 186 768 11 1312 45017 9602 25% 60 1199313 31498 83%
c - 30.79 186 679 12 1313 48998 7613 23% 61 1199313 31498 83%
c 
c  seconds    reductions      redundant    irredundant
c          MB      restarts          trail         variables
c            level      conflicts        glue           remaining
c 
c O 33.85 186 583 12 1314 55020 12259 21% 63 1199313 31498 83%
c - 35.00 186 547 13 1316 57106 8377 20% 61 1199313 31498 83%
c ] 35.72 186 463 13 1320 63006 12434 18% 58 1199313 31498 83%
c { 35.72 186 42 13 1320 63006 12434  9% 25 1199313 31498 83%
c s 35.92 186 42 13 1390 63351 11933  9% 25 1199313 31498 83%
c s 38.81 186 42 13 1390 63351 10870  9% 25 1199313 31498 83%
c ^ 39.10 186 42 13 1390 63351 10870  9% 25 1199313 31498 83%
c - 39.93 185 42 14 2023 65840 6730  9% 26 1199313 31498 83%
c B 39.96 185 42 14 2069 66022 6785  9% 26 1199313 31498 83%
c - 43.32 185 50 15 2405 75195 8471  9% 26 1199313 31498 83%
c W 44.54 185 52 15 2405 78023 10695  9% 26 1199313 31498 83%
c - 45.77 185 50 16 2441 85173 9742  8% 25 1199313 31498 83%
c # 46.25 185 47 16 2441 91025 13744  8% 25 1199313 31498 83%
c - 47.21 185 45 17 2443 95775 9853  8% 24 1199313 31498 83%
c B 49.85 185 41 17 2453 105027 16271  8% 24 1199313 31498 83%
c s 50.00 185 41 17 2461 105359 15425  8% 24 1199313 31498 83%
c s 53.04 185 41 17 2461 105359 15256  8% 24 1199313 31498 83%
c ^ 53.34 185 41 17 2461 105359 15256  8% 24 1199313 31498 83%
c - 54.06 185 40 18 2461 107003 10778  8% 23 1199313 31498 83%
c - 55.45 185 36 19 2461 118852 12198  7% 21 1199313 31498 83%
c 
c  seconds   reductions       redundant    irredundant
c          MB     restarts           trail         variables
c           level      conflicts         glue           remaining
c 
c W 56.79 185 35 19 2461 120028 13142  7% 21 1199313 31498 83%
c } 57.38 185 34 19 2461 127006 18689  7% 20 1199313 31498 83%
c [ 57.38 185 463 19 2461 127006 18689 18% 58 1199313 31498 83%
c - 58.71 186 1437 20 2462 131326 13512 23% 59 1199313 31498 83%
c B 59.40 186 1291 20 2466 136032 16936 22% 59 1199313 31498 83%
c - 63.17 187 1087 21 2469 144428 13278 20% 59 1199313 31498 83%
c W 65.64 187 930 21 2470 153034 19030 19% 59 1199313 31498 83%
c s 66.38 187 858 21 2470 157868 22570 19% 58 1199313 31498 83%
c w 67.39 187 858 21 2470 157868 22564 19% 58 1199313 31498 83%
c s 69.03 187 858 21 2470 157868 22511 19% 58 1199313 31498 83%
c ^ 69.28 187 858 21 2470 157868 22511 19% 58 1199313 31498 83%
c - 69.88 187 853 22 2470 158148 14173 19% 58 1199313 31498 83%
c I 71.73 187 695 22 2473 171039 23528 18% 57 1199313 31498 83%
c - 72.80 188 937 23 2474 172500 14983 19% 61 1199313 31498 83%
c - 78.27 191 881 24 2483 187470 16266 25% 67 1199313 31498 83%
c B 78.78 191 876 24 2484 190041 18370 25% 69 1199313 31498 83%
c - 82.00 191 781 25 2488 203062 17119 26% 73 1199313 31498 83%
c W 85.30 191 807 25 2492 210044 23083 28% 74 1199313 31498 83%
c - 87.42 189 729 26 2497 219277 17569 28% 74 1199313 31498 83%
c s 87.84 189 716 26 2498 220878 18863 28% 74 1199313 31498 83%
c 
c  seconds    reductions       redundant    irredundant
c          MB      restarts           trail         variables
c            level      conflicts         glue           remaining
c 
c w 89.07 189 716 26 2498 220878 18858 28% 74 1199313 31498 83%
c e 90.88 189 716 26 2498 220878 18858 28% 74 1199324 31497 83%
c s 90.97 189 716 26 2498 220878 18849 28% 74 1199324 31497 83%
c O 96.23 189 638 26 2500 231046 26142 27% 74 1199324 31497 83%
c - 97.73 188 600 27 2501 236122 17673 26% 72 1199324 31497 83%
c B 100.32 188 497 27 2502 253047 31058 24% 67 1199324 31497 83%
c - 101.13 188 573 28 2502 253587 18652 24% 68 1199324 31497 83%
c ] 101.56 188 768 28 2502 255010 19839 25% 70 1199324 31497 83%
c { 101.56 188 34 28 2502 255010 19839  7% 20 1199324 31497 83%
c - 105.14 188 45 29 6743 271673 18526  8% 23 1199324 31497 83%
c F 108.23 188 46 29 7872 276049 21977  8% 24 1199324 31497 83%
c - 110.08 186 44 30 11352 290383 15140  9% 25 1199324 31497 83%
c B 110.96 186 42 30 13754 300050 19130  9% 25 1199324 31497 83%
c - 112.28 185 50 31 13771 309719 14524  8% 24 1199324 31497 83%
c W 116.78 185 59 31 13815 325051 24488  8% 22 1199324 31497 83%
c - 117.90 186 57 32 13836 329678 17173  8% 22 1199324 31497 83%
c - 122.64 186 50 33 14049 350259 17194  8% 22 1199324 31497 83%
c # 122.70 186 50 33 14049 351054 17571  8% 22 1199324 31497 83%
c - 125.10 186 44 34 14343 371467 16999  7% 22 1199324 31497 83%
c B 125.90 186 43 34 14436 378058 20531  7% 22 1199324 31497 83%
c 
c  seconds    reductions        redundant    irredundant
c           MB      restarts           trail         variables
c            level       conflicts         glue           remaining
c 
c - 130.95 187 47 35 17652 393296 18622  7% 25 1199324 31497 83%
c W 135.89 187 47 35 18779 406060 27253  7% 25 1199324 31497 83%
c - 137.16 186 45 36 18814 415749 19999  7% 25 1199324 31497 83%
c F 139.52 186 42 36 18824 435061 32592  7% 24 1199324 31497 83%
c - 140.65 186 41 37 18830 438826 21047  7% 24 1199324 31497 83%
c - 146.23 186 37 38 18911 462525 21499  7% 24 1199324 31497 83%
c B 146.49 186 37 38 18913 465062 23282  7% 24 1199324 31497 83%
c - 149.27 187 38 39 21239 486848 23194  7% 24 1199324 31497 83%
c W 153.82 187 39 39 21275 496066 30483  7% 24 1199324 31497 83%
c } 155.31 187 40 39 23642 511010 40440  8% 25 1199324 31497 83%
c [ 155.31 187 768 39 23642 511010 40440 25% 70 1199324 31497 83%
c - 156.08 188 784 40 23642 511795 24090 25% 71 1199324 31497 83%
c W 164.46 188 693 40 23642 528070 34926 23% 66 1199324 31497 83%
c - 166.49 188 627 41 23642 537365 24005 22% 64 1199324 31497 83%
c I 170.18 188 492 41 23656 561072 41961 20% 59 1199324 31497 83%
c - 173.71 197 971 42 23656 563559 27204 21% 84 1199324 31497 83%
c - 182.76 203 1089 43 23669 590377 28817 26% 106 1199324 31497 83%
c s 182.90 203 1089 43 23669 590377 27552 26% 106 1199324 31497 83%
c w 184.57 203 1089 43 23669 590377 27549 26% 106 1199324 31497 83%
c B 185.65 203 1044 43 23671 595073 31275 25% 106 1199324 31497 83%
c 
c  seconds     reductions        redundant    irredundant
c           MB       restarts           trail         variables
c             level       conflicts         glue           remaining
c 
c - 191.48 191 841 44 23673 617818 29481 23% 94 1199324 31497 83%
c W 197.85 191 751 44 23679 630075 38516 22% 89 1199324 31497 83%
c - 201.78 194 1111 45 23687 645884 32541 27% 88 1199324 31497 83%
c O 205.58 194 938 45 23695 666078 48291 29% 89 1199324 31497 83%
c - 207.56 194 865 46 23701 674573 30484 28% 86 1199324 31497 83%
c B 213.63 194 661 46 23704 703079 50188 25% 77 1199324 31497 83%
c - 214.34 190 657 47 23704 703886 28456 25% 77 1199324 31497 83%
c - 227.08 201 968 48 23705 733822 33006 30% 89 1199324 31497 83%
c W 236.36 201 984 48 23706 741080 39057 31% 92 1199324 31497 83%
c - 242.11 197 818 49 23706 764384 35104 32% 89 1199324 31497 83%
c I 246.94 197 746 49 23706 780081 45809 33% 82 1199324 31497 83%
c - 253.80 199 1092 50 23706 795573 33067 35% 95 1199324 31497 83%
c B 260.65 199 1139 50 23716 820082 52630 34% 104 1199324 31497 83%
c - 262.43 201 1076 51 23720 827380 34240 33% 100 1199324 31497 83%
c - 269.37 190 795 52 23735 859812 32767 26% 84 1199324 31497 83%
c W 275.81 190 786 52 23735 861083 33628 26% 83 1199324 31497 83%
c - 286.95 199 791 53 23742 892869 35059 29% 96 1199324 31497 83%
c O 289.06 199 725 53 23747 903084 42790 28% 94 1199324 31497 83%
c - 293.05 192 586 54 23757 926547 32924 26% 85 1199324 31497 83%
c B 297.69 192 493 54 23767 946085 47029 24% 79 1199324 31497 83%
c 
c  seconds     reductions        redundant    irredundant
c           MB       restarts           trail         variables
c             level       conflicts         glue           remaining
c 
c - 304.67 196 799 55 23768 960852 36054 27% 88 1199324 31497 83%
c W 316.23 196 680 55 23769 990087 56786 28% 82 1199324 31497 83%
c - 318.92 195 1045 56 23769 995782 35114 30% 86 1199324 31497 83%
c ] 327.40 195 1285 56 23782 1023010 55814 33% 106 1199324 31497 83%
c { 327.40 195 40 56 23782 1023010 55814  8% 25 1199324 31497 83%
c - 328.99 202 45 57 24293 1031331 37230  8% 25 1199324 31497 83%
c s 329.28 202 45 57 24293 1031331 36355  8% 25 1199324 31497 83%
c w 330.83 202 45 57 24293 1031331 36348  8% 25 1199324 31497 83%
c # 331.64 202 48 57 24293 1035088 39266  8% 25 1199324 31497 83%
c - 338.27 189 42 58 24401 1067505 37174  8% 24 1199324 31497 83%
c B 340.20 189 40 58 24412 1081089 46761  8% 24 1199324 31497 83%
c - 343.07 189 39 59 24611 1104303 37563  8% 24 1199324 31497 83%
c W 353.52 189 38 59 24674 1128091 56406  8% 23 1199324 31497 83%
c - 355.53 189 39 60 24817 1141723 38601  8% 23 1199324 31497 83%
c F 360.97 189 41 60 25185 1176092 62161  8% 23 1199324 31497 83%
c - 361.93 189 41 61 25189 1179767 36951  8% 23 1199324 31497 83%
c - 366.59 188 35 62 25316 1218436 32579  7% 22 1199324 31497 83%
c B 367.19 188 35 62 25408 1225093 35916  7% 22 1199324 31497 83%
c - 370.91 191 41 63 33700 1257729 37139  9% 27 1199324 31497 83%
c W 381.61 191 44 63 38134 1275095 50537 10% 28 1199324 31497 83%
c 
c  seconds    reductions         redundant    irredundant
c           MB      restarts            trail         variables
c            level        conflicts         glue           remaining
c 
c - 384.77 192 47 64 43926 1297644 41002 11% 30 1199324 31497 83%
c # 388.58 192 50 64 51216 1326096 63171 12% 32 1199324 31497 83%
c - 390.33 191 48 65 53680 1338184 39008 12% 32 1199324 31497 83%
c B 394.30 191 45 65 54891 1378098 57873 13% 33 1199324 31497 83%
c - 394.86 188 45 66 54892 1379349 29764 13% 33 1199324 31497 83%
c - 401.13 193 60 67 59363 1421137 38443 13% 40 1199324 31497 83%
c W 410.16 193 60 67 59363 1431099 46148 13% 39 1199324 31497 83%
c - 414.63 191 54 68 59414 1463547 41469 13% 38 1199324 31497 83%
c F 417.37 191 51 68 59420 1485101 56450 12% 38 1199324 31497 83%
c - 421.59 191 49 69 59438 1506581 43142 12% 37 1199324 31497 83%
c s 421.73 191 49 69 59438 1506581 41409 12% 37 1199324 31497 83%
c w 422.88 191 49 69 59438 1506581 41391 12% 37 1199324 31497 83%
c B 426.21 191 46 69 59492 1540103 64219 12% 37 1199324 31497 83%
c - 427.57 191 47 70 59579 1550242 42747 12% 36 1199324 31497 83%
c - 431.96 191 58 71 59589 1594523 46196 13% 33 1199324 31497 83%
c W 441.61 191 58 71 59589 1596104 47432 13% 33 1199324 31497 83%
c - 447.96 190 48 72 59591 1639431 46072 12% 31 1199324 31497 83%
c # 449.27 190 46 72 59609 1653105 56789 12% 31 1199324 31497 83%
c - 452.29 190 42 73 59614 1684959 45199 11% 29 1199324 31497 83%
c B 454.55 190 38 73 59614 1711109 64169 10% 28 1199324 31497 83%
c 
c  seconds    reductions         redundant    irredundant
c           MB      restarts            trail         variables
c            level        conflicts         glue           remaining
c 
c - 456.61 189 37 74 59741 1731111 44073 10% 27 1199324 31497 83%
c W 470.92 189 33 74 59812 1770113 67329  9% 26 1199324 31497 83%
c - 472.29 189 35 75 60969 1777888 40235  9% 26 1199324 31497 83%
c - 476.27 189 38 76 61029 1825287 42473  9% 25 1199324 31497 83%
c F 476.68 189 38 76 61033 1830114 45866  9% 25 1199324 31497 83%
c - 480.74 189 34 77 61050 1873311 44600  8% 24 1199324 31497 83%
c B 483.74 189 33 77 61100 1891116 55776  7% 24 1199324 31497 83%
c - 486.61 189 41 78 61170 1921958 41180  7% 23 1199324 31497 83%
c W 500.65 189 46 78 61320 1953117 59404  7% 23 1199324 31497 83%
c - 502.83 188 49 79 62055 1971228 37936  7% 23 1199324 31497 83%
c # 506.82 188 54 79 62378 2016118 62655  7% 22 1199324 31497 83%
c - 507.74 188 54 80 62394 2021125 39278  7% 22 1199324 31497 83%
c } 511.07 188 47 80 62507 2047010 54349  7% 22 1199324 31497 83%
c [ 511.07 188 1285 80 62507 2047010 54349 33% 106 1199324 31497 83%
c - 514.07 201 1023 81 62516 2071647 43964 29% 92 1199324 31497 83%
c s 514.21 201 1023 81 62516 2071647 41464 29% 92 1199324 31497 83%
c w 515.40 201 1023 81 62516 2071647 41461 29% 92 1199324 31497 83%
c I 516.47 201 946 81 62522 2080119 47171 28% 88 1199324 31497 83%
c - 524.01 213 1309 82 62533 2122789 52527 32% 92 1199324 31497 83%
c B 527.24 213 1073 82 62542 2145122 69708 29% 90 1199324 31497 83%
c 
c  seconds     reductions         redundant    irredundant
c           MB       restarts            trail         variables
c             level        conflicts         glue           remaining
c 
c - 531.75 209 825 83 62555 2174554 53331 26% 87 1199324 31497 83%
c W 552.79 209 600 83 62557 2211125 83574 23% 81 1199324 31497 83%
c - 558.49 208 637 84 62558 2226945 56952 23% 80 1199324 31497 83%
c O 582.87 208 4211 84 62558 2278127 101367 40% 124 1199324 31497 83%
c - 584.05 232 4136 85 62558 2279960 60281 40% 122 1199324 31497 83%
c - 600.15 209 2465 86 62559 2333598 57525 28% 90 1199324 31497 83%
c ] 600.15 209 2464 86 62559 2333601 57528 28% 90 1199324 31497 83%
c ? 600.15 209 2464 86 62559 2333601 57528 28% 90 1199324 31497 83%
c 
c --- [ result ] -------------------------------------------------------------
c 
c UNKNOWN
c 
c --- [ run-time profiling ] -------------------------------------------------
c 
c process time taken by individual solving procedures
c (percentage relative to process time for solving)
c 
c       514.36   85.86% search
c       239.19   39.93% stable
c       161.95   27.03% unstable
c       113.20   18.90% walk
c        84.72   14.14% simplify
c        24.56    4.10% probe
c        17.08    2.85% ternary
c        10.69    1.79% elim
c         9.85    1.64% vivify
c         2.92    0.49% subsume
c         1.07    0.18% parse
c         0.02    0.00% lucky
c   =================================
c       599.08   99.82% solve
c 
c last line shows process time for solving
c (percentage relative to total process time)
c 
c --- [ statistics ] ---------------------------------------------------------
c 
c chronological:            375222        16.08 %  of conflicts
c conflicts:               2333601      3895.31    per second
c decisions:               3348142      5588.81    per second
c eliminated:                 4783        12.63 %  of all variables
c fixed:                      1600         4.22 %  of all variables
c learned:                 2311437        99.05 %  per conflict
c learned_lits:          264186226       100.00 %  learned literals
c minimized:                     0         0.00 %  learned literals
c shrunken:              101817626        38.54 %  learned literals
c minishrunken:            8658343         3.28 %  learned literals
c propagations:          624986831         1.04 M  per second
c reduced:                 1592245        68.23 %  per conflict
c rephased:                     67     34829.87    interval
c restarts:                  62559        37.30    interval
c stabilizing:                   6        41.51 %  of conflicts
c subsumed:                 659671         8.45 %  of all clauses
c strengthened:              24722         0.32 %  of all clauses
c vivified:                    135         0.00 %  of all clauses
c walked:                       21    111123.86    interval
c weakened:                 390440         2.42    average size
c 
c seconds are measured in process time for solving
c 
c --- [ resources ] ----------------------------------------------------------
c 
c total process time since initialization:       600.15    seconds
c total real time since initialization:          600.19    seconds
c maximum resident set size of process:          279.67    MB
c 
c --- [ shutting down ] ------------------------------------------------------
c 
c exit 0
